c description: Random 3-CNF over 21 variables and 89 clauses
c generator: CNFgen (0.9.2)
c copyright: (C) 2012-2022 Massimo Lauria <massimo.lauria@uniroma1.it>
c url: https://massimolauria.net/cnfgen
c command line: cnfgen --output CNF_4.28/21_bit_89_978.cnf randkcnf 3 21 89
c
p cnf 21 89
-6 9 13 0
-2 -11 -13 0
-13 -17 21 0
1 -5 14 0
8 -13 16 0
-4 -6 13 0
-8 12 13 0
-1 -18 20 0
-1 9 19 0
-3 -5 13 0
3 -5 14 0
10 14 15 0
-5 6 21 0
-12 16 20 0
2 10 -16 0
-9 -15 -20 0
-8 14 18 0
-3 -9 -13 0
3 9 -13 0
1 -7 8 0
5 15 19 0
-3 -6 -14 0
-11 16 -17 0
-9 -11 18 0
15 -16 18 0
-4 -6 -21 0
-4 17 -21 0
3 10 11 0
-1 3 10 0
1 -13 -20 0
-13 -17 -18 0
6 -7 19 0
2 4 -15 0
-2 -8 -20 0
3 -13 17 0
-2 14 -18 0
-1 9 -12 0
6 8 -21 0
9 15 -21 0
1 -15 -19 0
-9 10 -16 0
-3 14 -15 0
14 17 20 0
1 3 5 0
6 9 -15 0
-9 -11 14 0
-11 14 16 0
-6 8 -18 0
-3 -9 21 0
-16 -19 -21 0
7 -17 -21 0
-3 4 -16 0
3 6 10 0
5 -11 13 0
6 8 -11 0
-9 11 -20 0
7 -9 12 0
10 13 -20 0
17 -20 -21 0
6 9 -11 0
7 13 -21 0
3 6 -9 0
4 10 -11 0
4 15 -21 0
4 7 17 0
-6 14 -16 0
-11 -17 -21 0
-2 3 -18 0
3 -9 13 0
3 4 -13 0
-8 9 -14 0
-2 -4 -10 0
-12 -15 21 0
-11 -17 -19 0
-4 -13 -16 0
4 -9 11 0
-4 -6 -11 0
-7 10 -17 0
-6 12 16 0
2 -4 -7 0
2 -3 -10 0
7 17 20 0
5 11 16 0
-4 5 -12 0
4 5 -10 0
5 8 -18 0
-3 6 9 0
-2 13 14 0
9 -10 12 0
